p cnf 15 27
-6 9 0
-14 10 0
-13 3 0
-3 10 0
-10 1 0
-1 8 0
-5 11 0
-11 15 0
-2 15 0
-15 2 0
-2 -3 13 0
-4 -3 13 0
-10 -9 13 0
-8 1 4 0
-8 9 14 0
-13 -6 14 0
-9 6 10 11 0
-11 -9 -1 4 0
-6 -4 -1 12 0
-12 3 4 9 0
-2 -9 -8 6 0
-4 1 5 6 0
-8 -2 1 7 0
-2 -6 -1 12 0
-11 -9 1 5 7 0
-11 -10 3 4 5 0
-2 -13 -7 -4 5 0
